db/data/62172620912521255122247384365614221.z3.out
sat
-------------------
314.608791876
